(set-info :smt-lib-version 2.6)
(set-logic QF_BV)
(set-info :source |
 Patrice Godefroid, SAGE (systematic dynamic test generation)
 For more information: http://research.microsoft.com/en-us/um/people/pg/public_psfiles/ndss2008.pdf
|)
(set-info :category "industrial")
(set-info :status sat)
(declare-fun T4_11167 () (_ BitVec 32))
(declare-fun T2_10410 () (_ BitVec 16))
(declare-fun T2_10408 () (_ BitVec 16))
(declare-fun T2_10475 () (_ BitVec 16))
(declare-fun T2_10473 () (_ BitVec 16))
(declare-fun T1_11167 () (_ BitVec 8))
(declare-fun T1_11168 () (_ BitVec 8))
(declare-fun T1_11169 () (_ BitVec 8))
(declare-fun T1_11170 () (_ BitVec 8))
(declare-fun T1_10475 () (_ BitVec 8))
(declare-fun T1_10476 () (_ BitVec 8))
(declare-fun T1_10473 () (_ BitVec 8))
(declare-fun T1_10474 () (_ BitVec 8))
(declare-fun T1_10410 () (_ BitVec 8))
(declare-fun T1_10411 () (_ BitVec 8))
(declare-fun T1_10408 () (_ BitVec 8))
(declare-fun T1_10409 () (_ BitVec 8))
(assert (let ((?v_0 (bvadd T4_11167 (_ bv4 32))) (?v_8 ((_ zero_extend 16) T2_10408))) (let ((?v_6 (bvadd ?v_0 (bvsub (bvadd (bvadd (bvadd ?v_0 (_ bv61 32)) ?v_8) ((_ zero_extend 16) T2_10410)) ?v_0)))) (let ((?v_1 (bvadd ?v_6 (_ bv4 32))) (?v_13 ((_ zero_extend 16) T2_10473))) (let ((?v_11 (bvadd ?v_1 (bvsub (bvadd (bvadd (bvadd ?v_1 (_ bv53 32)) ?v_13) ((_ zero_extend 16) T2_10475)) ?v_1)))) (let ((?v_14 (bvadd ?v_11 (_ bv4 32))) (?v_16 (bvadd ?v_1 (_ bv42 32)))) (let ((?v_15 (bvsub (_ bv4294967295 32) ((_ zero_extend 24) (ite (bvult (bvsub (_ bv4294967295 32) ?v_14) (_ bv0 32)) (_ bv1 8) (_ bv0 8))))) (?v_12 (bvsub (_ bv4294967295 32) ((_ zero_extend 24) (ite (bvult (bvsub (_ bv4294967295 32) ?v_11) (_ bv0 32)) (_ bv1 8) (_ bv0 8))))) (?v_10 (bvadd ?v_0 (_ bv42 32))) (?v_9 (bvsub (_ bv4294967295 32) ((_ zero_extend 24) (ite (bvult (bvsub (_ bv4294967295 32) ?v_1) (_ bv0 32)) (_ bv1 8) (_ bv0 8))))) (?v_7 (bvsub (_ bv4294967295 32) ((_ zero_extend 24) (ite (bvult (bvsub (_ bv4294967295 32) ?v_6) (_ bv0 32)) (_ bv1 8) (_ bv0 8))))) (?v_5 (bvsub (_ bv4294967295 32) ((_ zero_extend 24) (ite (bvult (bvsub (_ bv4294967295 32) ?v_16) (_ bv0 32)) (_ bv1 8) (_ bv0 8))))) (?v_4 (bvsub (_ bv4294967295 32) ((_ zero_extend 24) (ite (bvult (bvsub (_ bv4294967295 32) ?v_0) (_ bv0 32)) (_ bv1 8) (_ bv0 8))))) (?v_3 (bvsub (_ bv4294967295 32) ((_ zero_extend 24) (ite (bvult (bvsub (_ bv4294967295 32) T4_11167) (_ bv0 32)) (_ bv1 8) (_ bv0 8)))))) (let ((?v_2 (bvsub (_ bv4294967295 32) ((_ zero_extend 24) (ite (bvult (bvsub (_ bv4294967295 32) ?v_10) (_ bv0 32)) (_ bv1 8) (_ bv0 8)))))) (and true (= T2_10408 (bvor (bvshl ((_ zero_extend 8) T1_10409) (_ bv8 16)) ((_ zero_extend 8) T1_10408))) (= T2_10410 (bvor (bvshl ((_ zero_extend 8) T1_10411) (_ bv8 16)) ((_ zero_extend 8) T1_10410))) (= T2_10473 (bvor (bvshl ((_ zero_extend 8) T1_10474) (_ bv8 16)) ((_ zero_extend 8) T1_10473))) (= T2_10475 (bvor (bvshl ((_ zero_extend 8) T1_10476) (_ bv8 16)) ((_ zero_extend 8) T1_10475))) (= T4_11167 (bvor (bvshl (bvor (bvshl (bvor (bvshl ((_ zero_extend 24) T1_11170) (_ bv8 32)) ((_ zero_extend 24) T1_11169)) (_ bv8 32)) ((_ zero_extend 24) T1_11168)) (_ bv8 32)) ((_ zero_extend 24) T1_11167))) (bvslt (bvsub (_ bv4294967295 32) (bvadd ?v_14 (_ bv42 32))) (_ bv0 32)) (bvult (_ bv0 32) ?v_2) (bvule (_ bv0 32) ?v_2) (bvult (_ bv0 32) ?v_3) (bvule (_ bv0 32) ?v_3) (bvult (_ bv0 32) ?v_4) (bvule (_ bv0 32) ?v_4) (bvult (_ bv0 32) ?v_5) (bvule (_ bv0 32) ?v_5) (bvult (_ bv0 32) ?v_7) (bvule (_ bv0 32) ?v_7) (= ?v_8 (_ bv0 32)) (bvult (_ bv0 32) ?v_9) (bvule (_ bv0 32) ?v_9) (not (= ?v_10 (_ bv4294967295 32))) (bvule (_ bv0 32) T4_11167) (not (= T4_11167 (_ bv11151 32))) (bvule T4_11167 (_ bv11151 32)) (not (= T4_11167 (_ bv4294967295 32))) (bvult (_ bv0 32) ?v_12) (bvule (_ bv0 32) ?v_12) (= ?v_13 (_ bv0 32)) (not (= ?v_0 (_ bv4294967295 32))) (bvule (_ bv0 32) ?v_0) (bvult (_ bv0 32) ?v_15) (bvule (_ bv0 32) ?v_15) (not (= ?v_16 (_ bv4294967295 32))) (not (= ?v_6 (_ bv4294967295 32))) (bvule (_ bv0 32) ?v_6) (not (= ?v_1 (_ bv4294967295 32))) (bvule (_ bv0 32) ?v_1) (not (= ?v_11 (_ bv4294967295 32))) (bvule (_ bv0 32) ?v_11) (not (= ?v_14 (_ bv4294967295 32))) (bvule (_ bv0 32) ?v_14))))))))))
(check-sat)
(exit)
